(set-logic HORN)
(declare-fun inv ((_ BitVec 8) (_ BitVec 8) (_ BitVec 8) (_ BitVec 8) ) Bool)
(assert (forall ((i (_ BitVec 8)) (t (_ BitVec 8)) (x (_ BitVec 8)) (y (_ BitVec 8))) 
       (=> ( and ( not ( = x y ) ) ( = i (_ bv0 8) ) ( = t y ) ) (inv i t x y))))
(assert (forall ((i (_ BitVec 8)) (t (_ BitVec 8)) (x (_ BitVec 8)) (y (_ BitVec 8)) (i! (_ BitVec 8)) (t! (_ BitVec 8)) (x! (_ BitVec 8)) (y! (_ BitVec 8))) 
       (=> (and (inv i t x y) ( or ( and ( bvugt x (_ bv0 8) ) ( = i! i ) ( = t! t ) ( = x! x ) ( = y! ( bvadd x y ) ) ) ( and ( bvule x (_ bv0 8) ) ( = i! i ) ( = t! t ) ( = x! x ) ( = y! y ) ) )) (inv i! t! x! y!))))
(assert (forall ((i (_ BitVec 8)) (t (_ BitVec 8)) (x (_ BitVec 8)) (y (_ BitVec 8))) 
       (=> (inv i t x y) ( bvuge y t ))))
(check-sat)
